
Gurobi 7.0.2 (mac64, Python) logging started Wed Nov 29 10:03:36 2017


Gurobi 7.0.2 (mac64, Python) logging started Wed Nov 29 10:13:47 2017


Gurobi 7.0.2 (mac64, Python) logging started Wed Nov 29 10:18:18 2017


Gurobi 7.0.2 (mac64, Python) logging started Wed Nov 29 10:18:32 2017


Gurobi 7.0.2 (mac64, Python) logging started Wed Nov 29 10:18:58 2017


Gurobi 7.0.2 (mac64, Python) logging started Wed Nov 29 11:08:57 2017


Gurobi 7.0.2 (mac64, Python) logging started Wed Nov 29 11:09:29 2017


Gurobi 7.0.2 (mac64, Python) logging started Wed Nov 29 11:12:49 2017


Gurobi 7.0.2 (mac64, Python) logging started Wed Nov 29 11:14:17 2017


Gurobi 7.0.2 (mac64, Python) logging started Wed Nov 29 11:14:32 2017


Gurobi 7.0.2 (mac64, Python) logging started Wed Nov 29 11:15:39 2017

Warning: constraint name "AR1[0,<__main__.Reservoir object at 0x1088089e8>]" has a space
Warning: constraint name "AR1[0,<__main__.Reservoir object at 0x1088089e8>]" has a space
Warning: constraint name "AR1[0,<__main__.Reservoir object at 0x1088089e8>]" has a space
Warning: constraint name "AR1[0,<__main__.Reservoir object at 0x1088089e8>]" has a space
Warning: constraint name "AR1[0,<__main__.Reservoir object at 0x1088089e8>]" has a space
Warning: constraint name "AR1[0,<__main__.Reservoir object at 0x1088089e8>]" has a space
Warning: constraint name "AR1[0,<__main__.Reservoir object at 0x1088089e8>]" has a space
Warning: constraint name "AR1[0,<__main__.Reservoir object at 0x1088089e8>]" has a space
Warning: constraint name "AR1[0,<__main__.Reservoir object at 0x1088089e8>]" has a space
Warning: constraint name "AR1[0,<__main__.Reservoir object at 0x1088089e8>]" has a space
Warning: constraint name "AR1[0,<__main__.Reservoir object at 0x1088089e8>]" has a space
Warning: constraint name "AR1[0,<__main__.Reservoir object at 0x1088089e8>]" has a space
Warning: constraint name "AR1[0,<__main__.Reservoir object at 0x1088089e8>]" has a space
Warning: constraint name "AR1[0,<__main__.Reservoir object at 0x1088089e8>]" has a space
Warning: constraint name "AR1[0,<__main__.Reservoir object at 0x1088089e8>]" has a space
Warning: constraint name "AR1[0,<__main__.Reservoir object at 0x1088089e8>]" has a space
Warning: constraint name "AR1[0,<__main__.Reservoir object at 0x1088089e8>]" has a space
Warning: constraint name "AR1[0,<__main__.Reservoir object at 0x1088089e8>]" has a space
Warning: constraint name "AR1[0,<__main__.Reservoir object at 0x1088089e8>]" has a space
Warning: constraint name "AR1[0,<__main__.Reservoir object at 0x1088089e8>]" has a space
Warning: constraint name "AR1[0,<__main__.Reservoir object at 0x1088089e8>]" has a space
Warning: constraint name "AR1[0,<__main__.Reservoir object at 0x1088089e8>]" has a space
Warning: constraint name "AR1[0,<__main__.Reservoir object at 0x1088089e8>]" has a space
Warning: constraint name "AR1[0,<__main__.Reservoir object at 0x1088089e8>]" has a space
Warning: constraint name "AR1[0,<__main__.Reservoir object at 0x1088089e8>]" has a space
Warning: constraint name "AR1[0,<__main__.Reservoir object at 0x1088089e8>]" has a space
Warning: constraint name "AR1[0,<__main__.Reservoir object at 0x1088089e8>]" has a space
Warning: constraint name "AR1[0,<__main__.Reservoir object at 0x1088089e8>]" has a space
Warning: constraint name "AR1[0,<__main__.Reservoir object at 0x1088089e8>]" has a space
Warning: constraint name "AR1[0,<__main__.Reservoir object at 0x1088089e8>]" has a space
Warning: constraint name "AR1[0,<__main__.Reservoir object at 0x1088089e8>]" has a space
Warning: constraint name "AR1[0,<__main__.Reservoir object at 0x1088089e8>]" has a space
Warning: constraint name "AR1[0,<__main__.Reservoir object at 0x1088089e8>]" has a space
Warning: constraint name "AR1[0,<__main__.Reservoir object at 0x1088089e8>]" has a space
Warning: constraint name "AR1[0,<__main__.Reservoir object at 0x1088089e8>]" has a space
Warning: constraint name "AR1[0,<__main__.Reservoir object at 0x1088089e8>]" has a space
Warning: constraint name "AR1[0,<__main__.Reservoir object at 0x1088089e8>]" has a space
Warning: constraint name "AR1[0,<__main__.Reservoir object at 0x1088089e8>]" has a space
Warning: constraint name "AR1[0,<__main__.Reservoir object at 0x1088089e8>]" has a space
Warning: constraint name "AR1[0,<__main__.Reservoir object at 0x1088089e8>]" has a space
Warning: constraint name "AR1[0,<__main__.Reservoir object at 0x1088089e8>]" has a space
Warning: constraint name "AR1[0,<__main__.Reservoir object at 0x1088089e8>]" has a space
Warning: constraint name "AR1[0,<__main__.Reservoir object at 0x1088089e8>]" has a space
Warning: constraint name "AR1[0,<__main__.Reservoir object at 0x1088089e8>]" has a space
Warning: constraint name "AR1[0,<__main__.Reservoir object at 0x1088089e8>]" has a space
Warning: constraint name "AR1[0,<__main__.Reservoir object at 0x1088089e8>]" has a space
Warning: constraint name "AR1[0,<__main__.Reservoir object at 0x1088089e8>]" has a space
Warning: constraint name "AR1[0,<__main__.Reservoir object at 0x1088089e8>]" has a space
Warning: constraint name "AR1[0,<__main__.Reservoir object at 0x1088089e8>]" has a space
Warning: constraint name "AR1[0,<__main__.Reservoir object at 0x1088089e8>]" has a space
Warning: constraint name "AR1[0,<__main__.Reservoir object at 0x1088089e8>]" has a space
Warning: constraint name "AR1[0,<__main__.Reservoir object at 0x1088089e8>]" has a space

Gurobi 7.0.2 (mac64, Python) logging started Wed Nov 29 11:16:57 2017


Gurobi 7.0.2 (mac64, Python) logging started Wed Nov 29 11:18:19 2017


Gurobi 7.0.2 (mac64, Python) logging started Wed Nov 29 11:22:05 2017


Gurobi 7.0.2 (mac64, Python) logging started Wed Nov 29 11:22:46 2017


Gurobi 7.0.2 (mac64, Python) logging started Wed Nov 29 11:25:10 2017


Gurobi 7.0.2 (mac64, Python) logging started Wed Nov 29 11:26:44 2017


Gurobi 7.0.2 (mac64, Python) logging started Wed Nov 29 11:29:55 2017


Gurobi 7.0.2 (mac64, Python) logging started Wed Nov 29 11:31:11 2017


Gurobi 7.0.2 (mac64, Python) logging started Wed Nov 29 11:31:39 2017


Gurobi 7.0.2 (mac64, Python) logging started Wed Nov 29 11:37:40 2017


Gurobi 7.0.2 (mac64, Python) logging started Wed Nov 29 11:38:51 2017


Gurobi 7.0.2 (mac64, Python) logging started Wed Nov 29 11:45:38 2017


Gurobi 7.0.2 (mac64, Python) logging started Wed Nov 29 11:45:57 2017


Gurobi 7.0.2 (mac64, Python) logging started Wed Nov 29 11:49:54 2017


Gurobi 7.0.2 (mac64, Python) logging started Wed Nov 29 11:55:08 2017


Gurobi 7.0.2 (mac64, Python) logging started Wed Nov 29 11:56:38 2017


Gurobi 7.0.2 (mac64, Python) logging started Wed Nov 29 11:56:41 2017


Gurobi 7.0.2 (mac64, Python) logging started Wed Nov 29 14:17:19 2017


Gurobi 7.0.2 (mac64, Python) logging started Wed Nov 29 14:17:39 2017


Gurobi 7.0.2 (mac64, Python) logging started Wed Nov 29 14:20:54 2017


Gurobi 7.0.2 (mac64, Python) logging started Wed Nov 29 14:22:10 2017


Gurobi 7.0.2 (mac64, Python) logging started Wed Nov 29 14:25:54 2017


Gurobi 7.0.2 (mac64, Python) logging started Wed Nov 29 14:26:09 2017


Gurobi 7.0.2 (mac64, Python) logging started Wed Nov 29 14:27:11 2017


Gurobi 7.0.2 (mac64, Python) logging started Wed Nov 29 14:55:52 2017


Gurobi 7.0.2 (mac64, Python) logging started Thu Nov 30 20:30:10 2017


Gurobi 7.0.2 (mac64, Python) logging started Thu Nov 30 20:42:20 2017


Gurobi 7.0.2 (mac64, Python) logging started Fri Dec  1 11:06:54 2017


Gurobi 7.0.2 (mac64, Python) logging started Fri Dec  1 11:23:55 2017


Gurobi 7.0.2 (mac64, Python) logging started Sat Dec  2 00:19:47 2017


Gurobi 7.0.2 (mac64, Python) logging started Sat Dec  2 12:03:21 2017


Gurobi 7.0.2 (mac64, Python) logging started Sat Dec  2 12:28:53 2017


Gurobi 7.0.2 (mac64, Python) logging started Sat Dec  2 12:31:13 2017


Gurobi 7.0.2 (mac64, Python) logging started Sat Dec  2 12:31:29 2017


Gurobi 7.0.2 (mac64, Python) logging started Sat Dec  2 12:32:33 2017


Gurobi 7.0.2 (mac64, Python) logging started Sat Dec  2 12:33:32 2017


Gurobi 7.0.2 (mac64, Python) logging started Sat Dec  2 12:34:24 2017


Gurobi 7.0.2 (mac64, Python) logging started Sat Dec  2 12:34:40 2017


Gurobi 7.0.2 (mac64, Python) logging started Sat Dec  2 12:34:50 2017


Gurobi 7.0.2 (mac64, Python) logging started Sat Dec  2 12:36:34 2017


Gurobi 7.0.2 (mac64, Python) logging started Sat Dec  2 12:36:59 2017


Gurobi 7.0.2 (mac64, Python) logging started Sat Dec  2 12:37:17 2017


Gurobi 7.0.2 (mac64, Python) logging started Sat Dec  2 12:58:47 2017


Gurobi 7.0.2 (mac64, Python) logging started Sat Dec  2 12:58:53 2017


Gurobi 7.0.2 (mac64, Python) logging started Sat Dec  2 12:59:05 2017


Gurobi 7.0.2 (mac64, Python) logging started Sat Dec  2 13:00:22 2017


Gurobi 7.0.2 (mac64, Python) logging started Sat Dec  2 13:00:36 2017


Gurobi 7.0.2 (mac64, Python) logging started Sat Dec  2 13:01:02 2017


Gurobi 7.0.2 (mac64, Python) logging started Sat Dec  2 13:01:27 2017


Gurobi 7.0.2 (mac64, Python) logging started Sat Dec  2 13:02:21 2017


Gurobi 7.0.2 (mac64, Python) logging started Sat Dec  2 13:02:30 2017


Gurobi 7.0.2 (mac64, Python) logging started Sat Dec  2 13:02:53 2017


Gurobi 7.0.2 (mac64, Python) logging started Sat Dec  2 13:03:24 2017


Gurobi 7.0.2 (mac64, Python) logging started Sat Dec  2 13:03:51 2017


Gurobi 7.0.2 (mac64, Python) logging started Sat Dec  2 13:04:10 2017


Gurobi 7.0.2 (mac64, Python) logging started Sat Dec  2 13:04:40 2017


Gurobi 7.0.2 (mac64, Python) logging started Sat Dec  2 13:04:55 2017


Gurobi 7.0.2 (mac64, Python) logging started Sat Dec  2 13:06:22 2017


Gurobi 7.0.2 (mac64, Python) logging started Sat Dec  2 13:06:33 2017


Gurobi 7.0.2 (mac64, Python) logging started Sat Dec  2 13:24:22 2017


Gurobi 7.0.2 (mac64, Python) logging started Sat Dec  2 13:25:07 2017


Gurobi 7.0.2 (mac64, Python) logging started Sat Dec  2 13:25:16 2017


Gurobi 7.0.2 (mac64, Python) logging started Sat Dec  2 13:25:28 2017


Gurobi 7.0.2 (mac64, Python) logging started Sat Dec  2 13:25:37 2017


Gurobi 7.0.2 (mac64, Python) logging started Sat Dec  2 13:30:07 2017


Gurobi 7.0.2 (mac64, Python) logging started Sat Dec  2 13:32:47 2017


Gurobi 7.0.2 (mac64, Python) logging started Sat Dec  2 15:58:23 2017


Gurobi 7.0.2 (mac64, Python) logging started Sat Dec  2 15:58:55 2017


Gurobi 7.0.2 (mac64, Python) logging started Sat Dec  2 15:59:26 2017


Gurobi 7.0.2 (mac64, Python) logging started Sat Dec  2 16:14:47 2017


Gurobi 7.0.2 (mac64, Python) logging started Sat Dec  2 16:17:18 2017


Gurobi 7.0.2 (mac64, Python) logging started Sat Dec  2 16:17:50 2017


Gurobi 7.0.2 (mac64, Python) logging started Sat Dec  2 16:18:37 2017


Gurobi 7.0.2 (mac64, Python) logging started Sat Dec  2 16:19:45 2017


Gurobi 7.0.2 (mac64, Python) logging started Sat Dec  2 16:37:52 2017


Gurobi 7.0.2 (mac64, Python) logging started Sat Dec  2 16:38:23 2017


Gurobi 7.0.2 (mac64, Python) logging started Sat Dec  2 16:38:55 2017


Gurobi 7.0.2 (mac64, Python) logging started Sat Dec  2 16:40:56 2017


Gurobi 7.0.2 (mac64, Python) logging started Sat Dec  2 16:41:54 2017


Gurobi 7.0.2 (mac64, Python) logging started Sat Dec  2 16:42:42 2017


Gurobi 7.0.2 (mac64, Python) logging started Sat Dec  2 16:44:54 2017


Gurobi 7.0.2 (mac64, Python) logging started Sat Dec  2 16:50:29 2017


Gurobi 7.0.2 (mac64, Python) logging started Sat Dec  2 16:53:01 2017


Gurobi 7.0.2 (mac64, Python) logging started Sat Dec  2 16:53:14 2017


Gurobi 7.0.2 (mac64, Python) logging started Sat Dec  2 16:53:31 2017


Gurobi 7.0.2 (mac64, Python) logging started Sat Dec  2 16:53:46 2017


Gurobi 7.0.2 (mac64, Python) logging started Sat Dec  2 16:54:25 2017


Gurobi 7.0.2 (mac64, Python) logging started Sat Dec  2 16:54:44 2017


Gurobi 7.0.2 (mac64, Python) logging started Sat Dec  2 16:55:07 2017


Gurobi 7.0.2 (mac64, Python) logging started Sat Dec  2 16:55:15 2017


Gurobi 7.0.2 (mac64, Python) logging started Sat Dec  2 16:55:26 2017


Gurobi 7.0.2 (mac64, Python) logging started Sat Dec  2 16:55:50 2017


Gurobi 7.0.2 (mac64, Python) logging started Sat Dec  2 16:56:39 2017


Gurobi 7.0.2 (mac64, Python) logging started Sat Dec  2 17:01:13 2017


Gurobi 7.0.2 (mac64, Python) logging started Sat Dec  2 17:02:00 2017


Gurobi 7.0.2 (mac64, Python) logging started Sun Dec  3 11:11:07 2017


Gurobi 7.0.2 (mac64, Python) logging started Sun Dec  3 11:27:07 2017


Gurobi 7.0.2 (mac64, Python) logging started Sun Dec  3 11:38:21 2017


Gurobi 7.0.2 (mac64, Python) logging started Sun Dec  3 11:38:43 2017


Gurobi 7.0.2 (mac64, Python) logging started Sun Dec  3 11:39:41 2017


Gurobi 7.0.2 (mac64, Python) logging started Sun Dec  3 11:41:48 2017


Gurobi 7.0.2 (mac64, Python) logging started Sun Dec  3 11:42:02 2017


Gurobi 7.0.2 (mac64, Python) logging started Sun Dec  3 11:42:54 2017


Gurobi 7.0.2 (mac64, Python) logging started Sun Dec  3 11:45:53 2017


Gurobi 7.0.2 (mac64, Python) logging started Sun Dec  3 11:48:20 2017


Gurobi 7.0.2 (mac64, Python) logging started Sun Dec  3 11:48:48 2017


Gurobi 7.0.2 (mac64, Python) logging started Sun Dec  3 11:49:31 2017


Gurobi 7.0.2 (mac64, Python) logging started Sun Dec  3 11:50:18 2017


Gurobi 7.0.2 (mac64, Python) logging started Sun Dec  3 11:59:54 2017


Gurobi 7.0.2 (mac64, Python) logging started Sun Dec  3 12:01:14 2017


Gurobi 7.0.2 (mac64, Python) logging started Sun Dec  3 12:01:23 2017


Gurobi 7.0.2 (mac64, Python) logging started Sun Dec  3 12:04:07 2017


Gurobi 7.0.2 (mac64, Python) logging started Sun Dec  3 12:08:10 2017


Gurobi 7.0.2 (mac64, Python) logging started Sun Dec  3 12:25:43 2017


Gurobi 7.0.2 (mac64, Python) logging started Sun Dec  3 12:27:36 2017


Gurobi 7.0.2 (mac64, Python) logging started Sun Dec  3 12:29:00 2017


Gurobi 7.0.2 (mac64, Python) logging started Sun Dec  3 12:30:18 2017


Gurobi 7.0.2 (mac64, Python) logging started Sun Dec  3 12:38:03 2017


Gurobi 7.0.2 (mac64, Python) logging started Sun Dec  3 12:38:24 2017


Gurobi 7.0.2 (mac64, Python) logging started Sun Dec  3 12:45:23 2017


Gurobi 7.0.2 (mac64, Python) logging started Sun Dec  3 12:46:34 2017


Gurobi 7.0.2 (mac64, Python) logging started Sun Dec  3 12:50:18 2017


Gurobi 7.0.2 (mac64, Python) logging started Sun Dec  3 12:53:43 2017


Gurobi 7.0.2 (mac64, Python) logging started Sun Dec  3 12:56:33 2017


Gurobi 7.0.2 (mac64, Python) logging started Sun Dec  3 12:58:15 2017


Gurobi 7.0.2 (mac64, Python) logging started Sun Dec  3 12:58:57 2017


Gurobi 7.0.2 (mac64, Python) logging started Sun Dec  3 13:01:36 2017


Gurobi 7.0.2 (mac64, Python) logging started Sun Dec  3 13:03:31 2017


Gurobi 7.0.2 (mac64, Python) logging started Sun Dec  3 13:05:03 2017


Gurobi 7.0.2 (mac64, Python) logging started Sun Dec  3 13:05:49 2017


Gurobi 7.0.2 (mac64, Python) logging started Sun Dec  3 13:07:09 2017


Gurobi 7.0.2 (mac64, Python) logging started Sun Dec  3 13:53:39 2017


Gurobi 7.0.2 (mac64, Python) logging started Sun Dec  3 14:05:36 2017


Gurobi 7.0.2 (mac64, Python) logging started Mon Dec  4 10:48:23 2017


Gurobi 7.0.2 (mac64, Python) logging started Mon Dec  4 11:26:00 2017


Gurobi 7.0.2 (mac64, Python) logging started Mon Dec  4 11:30:41 2017


Gurobi 7.0.2 (mac64, Python) logging started Mon Dec  4 11:33:33 2017


Gurobi 7.0.2 (mac64, Python) logging started Mon Dec  4 11:37:22 2017


Gurobi 7.0.2 (mac64, Python) logging started Mon Dec  4 11:37:45 2017


Gurobi 7.0.2 (mac64, Python) logging started Mon Dec  4 11:38:45 2017


Gurobi 7.0.2 (mac64, Python) logging started Mon Dec  4 11:49:39 2017


Gurobi 7.0.2 (mac64, Python) logging started Mon Dec  4 11:50:28 2017


Gurobi 7.0.2 (mac64, Python) logging started Mon Dec  4 13:27:39 2017


Gurobi 7.0.2 (mac64, Python) logging started Mon Dec  4 13:28:31 2017


Gurobi 7.0.2 (mac64, Python) logging started Mon Dec  4 13:29:17 2017


Gurobi 7.0.2 (mac64, Python) logging started Mon Dec  4 13:32:24 2017


Gurobi 7.0.2 (mac64, Python) logging started Mon Dec  4 13:34:03 2017


Gurobi 7.0.2 (mac64, Python) logging started Mon Dec  4 13:36:25 2017


Gurobi 7.0.2 (mac64, Python) logging started Mon Dec  4 13:50:02 2017


Gurobi 7.0.2 (mac64, Python) logging started Mon Dec  4 13:51:29 2017


Gurobi 7.0.2 (mac64, Python) logging started Mon Dec  4 13:59:31 2017


Gurobi 7.0.2 (mac64, Python) logging started Mon Dec  4 14:52:25 2017


Gurobi 7.0.2 (mac64, Python) logging started Mon Dec  4 14:58:37 2017


Gurobi 7.0.2 (mac64, Python) logging started Mon Dec  4 15:01:09 2017


Gurobi 7.0.2 (mac64, Python) logging started Tue Dec  5 14:28:27 2017


Gurobi 7.0.2 (mac64, Python) logging started Tue Dec  5 14:30:53 2017


Gurobi 7.0.2 (mac64, Python) logging started Tue Dec  5 14:37:38 2017


Gurobi 7.0.2 (mac64, Python) logging started Tue Dec  5 14:40:00 2017


Gurobi 7.0.2 (mac64, Python) logging started Tue Dec  5 16:08:07 2017


Gurobi 7.0.2 (mac64, Python) logging started Tue Dec  5 17:06:34 2017


Gurobi 7.0.2 (mac64, Python) logging started Tue Dec  5 17:08:25 2017


Gurobi 7.0.2 (mac64, Python) logging started Tue Dec  5 17:19:06 2017


Gurobi 7.0.2 (mac64, Python) logging started Tue Dec  5 17:40:05 2017


Gurobi 7.0.2 (mac64, Python) logging started Tue Dec  5 18:14:55 2017


Gurobi 7.0.2 (mac64, Python) logging started Tue Dec  5 21:25:42 2017


Gurobi 7.0.2 (mac64, Python) logging started Thu Dec  7 15:46:41 2017


Gurobi 7.0.2 (mac64, Python) logging started Thu Dec  7 15:49:07 2017


Gurobi 7.0.2 (mac64, Python) logging started Thu Dec  7 16:10:25 2017


Gurobi 7.0.2 (mac64, Python) logging started Thu Dec  7 16:12:03 2017


Gurobi 7.0.2 (mac64, Python) logging started Thu Dec  7 16:13:14 2017


Gurobi 7.0.2 (mac64, Python) logging started Thu Dec  7 16:17:27 2017


Gurobi 7.0.2 (mac64, Python) logging started Thu Dec  7 16:18:37 2017


Gurobi 7.0.2 (mac64, Python) logging started Thu Dec  7 16:19:16 2017


Gurobi 7.0.2 (mac64, Python) logging started Thu Dec  7 16:23:42 2017


Gurobi 7.0.2 (mac64, Python) logging started Thu Dec  7 16:41:43 2017


Gurobi 7.0.2 (mac64, Python) logging started Thu Dec  7 16:42:00 2017


Gurobi 7.0.2 (mac64, Python) logging started Thu Dec  7 16:46:05 2017


Gurobi 7.0.2 (mac64, Python) logging started Thu Dec  7 16:46:14 2017


Gurobi 7.0.2 (mac64, Python) logging started Thu Dec  7 16:46:48 2017


Gurobi 7.0.2 (mac64, Python) logging started Thu Dec  7 16:47:05 2017


Gurobi 7.0.2 (mac64, Python) logging started Thu Dec  7 16:48:56 2017


Gurobi 7.0.2 (mac64, Python) logging started Thu Dec  7 16:52:09 2017


Gurobi 7.0.2 (mac64, Python) logging started Thu Dec  7 19:54:38 2017


Gurobi 7.0.2 (mac64, Python) logging started Thu Dec  7 19:56:02 2017


Gurobi 7.0.2 (mac64, Python) logging started Thu Dec  7 19:57:14 2017


Gurobi 7.0.2 (mac64, Python) logging started Fri Dec  8 08:52:53 2017


Gurobi 7.0.2 (mac64, Python) logging started Fri Dec  8 09:01:36 2017


Gurobi 7.0.2 (mac64, Python) logging started Fri Dec  8 09:03:28 2017


Gurobi 7.0.2 (mac64, Python) logging started Fri Dec  8 09:03:35 2017


Gurobi 7.0.2 (mac64, Python) logging started Fri Dec  8 09:03:40 2017


Gurobi 7.0.2 (mac64, Python) logging started Fri Dec  8 09:05:11 2017


Gurobi 7.0.2 (mac64, Python) logging started Fri Dec  8 09:13:04 2017


Gurobi 7.0.2 (mac64, Python) logging started Fri Dec  8 09:15:35 2017


Gurobi 7.0.2 (mac64, Python) logging started Fri Dec  8 09:21:46 2017


Gurobi 7.0.2 (mac64, Python) logging started Fri Dec  8 09:22:21 2017


Gurobi 7.0.2 (mac64, Python) logging started Fri Dec  8 09:22:33 2017


Gurobi 7.0.2 (mac64, Python) logging started Fri Dec  8 09:22:52 2017


Gurobi 7.0.2 (mac64, Python) logging started Fri Dec  8 09:24:34 2017


Gurobi 7.0.2 (mac64, Python) logging started Fri Dec  8 09:24:45 2017


Gurobi 7.0.2 (mac64, Python) logging started Fri Dec  8 09:26:38 2017


Gurobi 7.0.2 (mac64, Python) logging started Fri Dec  8 09:28:25 2017


Gurobi 7.0.2 (mac64, Python) logging started Fri Dec  8 09:31:14 2017


Gurobi 7.0.2 (mac64, Python) logging started Fri Dec  8 09:31:40 2017


Gurobi 7.0.2 (mac64, Python) logging started Fri Dec  8 09:32:15 2017


Gurobi 7.0.2 (mac64, Python) logging started Fri Dec  8 09:32:25 2017


Gurobi 7.0.2 (mac64, Python) logging started Fri Dec  8 09:35:30 2017


Gurobi 7.0.2 (mac64, Python) logging started Fri Dec  8 09:37:30 2017


Gurobi 7.0.2 (mac64, Python) logging started Fri Dec  8 09:39:04 2017


Gurobi 7.0.2 (mac64, Python) logging started Fri Dec  8 09:40:31 2017


Gurobi 7.0.2 (mac64, Python) logging started Fri Dec  8 09:41:01 2017


Gurobi 7.0.2 (mac64, Python) logging started Fri Dec  8 09:42:11 2017


Gurobi 7.0.2 (mac64, Python) logging started Fri Dec  8 09:43:38 2017


Gurobi 7.0.2 (mac64, Python) logging started Fri Dec  8 09:48:10 2017


Gurobi 7.0.2 (mac64, Python) logging started Fri Dec  8 09:48:26 2017


Gurobi 7.0.2 (mac64, Python) logging started Fri Dec  8 09:49:52 2017


Gurobi 7.0.2 (mac64, Python) logging started Fri Dec  8 09:50:46 2017


Gurobi 7.0.2 (mac64, Python) logging started Fri Dec  8 09:53:17 2017


Gurobi 7.0.2 (mac64, Python) logging started Fri Dec  8 09:56:00 2017


Gurobi 7.0.2 (mac64, Python) logging started Fri Dec  8 18:34:25 2017


Gurobi 7.0.2 (mac64, Python) logging started Fri Dec  8 18:41:56 2017

Changed value of parameter Threads to 8
   Prev: 0  Min: 0  Max: 1024  Default: 0
Changed value of parameter Threads to 8
   Prev: 0  Min: 0  Max: 1024  Default: 0
Changed value of parameter Threads to 8
   Prev: 0  Min: 0  Max: 1024  Default: 0
Changed value of parameter Threads to 8
   Prev: 0  Min: 0  Max: 1024  Default: 0
Changed value of parameter Threads to 8
   Prev: 0  Min: 0  Max: 1024  Default: 0
Changed value of parameter Threads to 8
   Prev: 0  Min: 0  Max: 1024  Default: 0
Changed value of parameter Threads to 8
   Prev: 0  Min: 0  Max: 1024  Default: 0
Changed value of parameter Threads to 8
   Prev: 0  Min: 0  Max: 1024  Default: 0
Changed value of parameter Threads to 8
   Prev: 0  Min: 0  Max: 1024  Default: 0
Changed value of parameter Threads to 8
   Prev: 0  Min: 0  Max: 1024  Default: 0
Changed value of parameter Threads to 8
   Prev: 0  Min: 0  Max: 1024  Default: 0
Changed value of parameter Threads to 8
   Prev: 0  Min: 0  Max: 1024  Default: 0
Changed value of parameter Threads to 8
   Prev: 0  Min: 0  Max: 1024  Default: 0
Changed value of parameter Threads to 8
   Prev: 0  Min: 0  Max: 1024  Default: 0
Changed value of parameter Threads to 8
   Prev: 0  Min: 0  Max: 1024  Default: 0
Changed value of parameter Threads to 8
   Prev: 0  Min: 0  Max: 1024  Default: 0
Changed value of parameter Threads to 8
   Prev: 0  Min: 0  Max: 1024  Default: 0
Changed value of parameter Threads to 8
   Prev: 0  Min: 0  Max: 1024  Default: 0
Changed value of parameter Threads to 8
   Prev: 0  Min: 0  Max: 1024  Default: 0
Changed value of parameter Threads to 8
   Prev: 0  Min: 0  Max: 1024  Default: 0
Changed value of parameter Threads to 8
   Prev: 0  Min: 0  Max: 1024  Default: 0
Changed value of parameter Threads to 8
   Prev: 0  Min: 0  Max: 1024  Default: 0
Changed value of parameter Threads to 8
   Prev: 0  Min: 0  Max: 1024  Default: 0
Changed value of parameter Threads to 8
   Prev: 0  Min: 0  Max: 1024  Default: 0
Changed value of parameter Threads to 8
   Prev: 0  Min: 0  Max: 1024  Default: 0
Changed value of parameter Threads to 8
   Prev: 0  Min: 0  Max: 1024  Default: 0
Changed value of parameter Threads to 8
   Prev: 0  Min: 0  Max: 1024  Default: 0
Changed value of parameter Threads to 8
   Prev: 0  Min: 0  Max: 1024  Default: 0
Changed value of parameter Threads to 8
   Prev: 0  Min: 0  Max: 1024  Default: 0
Changed value of parameter Threads to 8
   Prev: 0  Min: 0  Max: 1024  Default: 0
Changed value of parameter Threads to 8
   Prev: 0  Min: 0  Max: 1024  Default: 0
Changed value of parameter Threads to 8
   Prev: 0  Min: 0  Max: 1024  Default: 0
Changed value of parameter Threads to 8
   Prev: 0  Min: 0  Max: 1024  Default: 0
Changed value of parameter Threads to 8
   Prev: 0  Min: 0  Max: 1024  Default: 0
Changed value of parameter Threads to 8
   Prev: 0  Min: 0  Max: 1024  Default: 0
Changed value of parameter Threads to 8
   Prev: 0  Min: 0  Max: 1024  Default: 0
Changed value of parameter Threads to 8
   Prev: 0  Min: 0  Max: 1024  Default: 0
Changed value of parameter Threads to 8
   Prev: 0  Min: 0  Max: 1024  Default: 0
Changed value of parameter Threads to 8
   Prev: 0  Min: 0  Max: 1024  Default: 0
Changed value of parameter Threads to 8
   Prev: 0  Min: 0  Max: 1024  Default: 0
Changed value of parameter Threads to 8
   Prev: 0  Min: 0  Max: 1024  Default: 0
Changed value of parameter Threads to 8
   Prev: 0  Min: 0  Max: 1024  Default: 0
Changed value of parameter Threads to 8
   Prev: 0  Min: 0  Max: 1024  Default: 0
Changed value of parameter Threads to 8
   Prev: 0  Min: 0  Max: 1024  Default: 0
Changed value of parameter Threads to 8
   Prev: 0  Min: 0  Max: 1024  Default: 0
Changed value of parameter Threads to 8
   Prev: 0  Min: 0  Max: 1024  Default: 0
Changed value of parameter Threads to 8
   Prev: 0  Min: 0  Max: 1024  Default: 0
Changed value of parameter Threads to 8
   Prev: 0  Min: 0  Max: 1024  Default: 0
Changed value of parameter Threads to 8
   Prev: 0  Min: 0  Max: 1024  Default: 0
Changed value of parameter Threads to 8
   Prev: 0  Min: 0  Max: 1024  Default: 0
Changed value of parameter Threads to 8
   Prev: 0  Min: 0  Max: 1024  Default: 0
Changed value of parameter Threads to 8
   Prev: 0  Min: 0  Max: 1024  Default: 0
Changed value of parameter Threads to 8
   Prev: 0  Min: 0  Max: 1024  Default: 0
Changed value of parameter Threads to 8
   Prev: 0  Min: 0  Max: 1024  Default: 0
Changed value of parameter Threads to 8
   Prev: 0  Min: 0  Max: 1024  Default: 0
Changed value of parameter Threads to 8
   Prev: 0  Min: 0  Max: 1024  Default: 0
Changed value of parameter Threads to 8
   Prev: 0  Min: 0  Max: 1024  Default: 0
Changed value of parameter Threads to 8
   Prev: 0  Min: 0  Max: 1024  Default: 0
Changed value of parameter Threads to 8
   Prev: 0  Min: 0  Max: 1024  Default: 0
Changed value of parameter Threads to 8
   Prev: 0  Min: 0  Max: 1024  Default: 0
Changed value of parameter Threads to 8
   Prev: 0  Min: 0  Max: 1024  Default: 0
Changed value of parameter Threads to 8
   Prev: 0  Min: 0  Max: 1024  Default: 0
Changed value of parameter Threads to 8
   Prev: 0  Min: 0  Max: 1024  Default: 0
Changed value of parameter Threads to 8
   Prev: 0  Min: 0  Max: 1024  Default: 0
Changed value of parameter Threads to 8
   Prev: 0  Min: 0  Max: 1024  Default: 0
Changed value of parameter Threads to 8
   Prev: 0  Min: 0  Max: 1024  Default: 0
Changed value of parameter Threads to 8
   Prev: 0  Min: 0  Max: 1024  Default: 0
Changed value of parameter Threads to 8
   Prev: 0  Min: 0  Max: 1024  Default: 0
Changed value of parameter Threads to 8
   Prev: 0  Min: 0  Max: 1024  Default: 0
Changed value of parameter Threads to 8
   Prev: 0  Min: 0  Max: 1024  Default: 0
Changed value of parameter Threads to 8
   Prev: 0  Min: 0  Max: 1024  Default: 0
Changed value of parameter Threads to 8
   Prev: 0  Min: 0  Max: 1024  Default: 0
Changed value of parameter Threads to 8
   Prev: 0  Min: 0  Max: 1024  Default: 0
Changed value of parameter Threads to 8
   Prev: 0  Min: 0  Max: 1024  Default: 0
Changed value of parameter Threads to 8
   Prev: 0  Min: 0  Max: 1024  Default: 0
Changed value of parameter Threads to 8
   Prev: 0  Min: 0  Max: 1024  Default: 0
Changed value of parameter Threads to 8
   Prev: 0  Min: 0  Max: 1024  Default: 0
Changed value of parameter Threads to 8
   Prev: 0  Min: 0  Max: 1024  Default: 0
Changed value of parameter Threads to 8
   Prev: 0  Min: 0  Max: 1024  Default: 0
Changed value of parameter Threads to 8
   Prev: 0  Min: 0  Max: 1024  Default: 0
Changed value of parameter Threads to 8
   Prev: 0  Min: 0  Max: 1024  Default: 0
Changed value of parameter Threads to 8
   Prev: 0  Min: 0  Max: 1024  Default: 0
Changed value of parameter Threads to 8
   Prev: 0  Min: 0  Max: 1024  Default: 0
Changed value of parameter Threads to 8
   Prev: 0  Min: 0  Max: 1024  Default: 0
Changed value of parameter Threads to 8
   Prev: 0  Min: 0  Max: 1024  Default: 0
Changed value of parameter Threads to 8
   Prev: 0  Min: 0  Max: 1024  Default: 0
Changed value of parameter Threads to 8
   Prev: 0  Min: 0  Max: 1024  Default: 0
Changed value of parameter Threads to 8
   Prev: 0  Min: 0  Max: 1024  Default: 0
Changed value of parameter Threads to 8
   Prev: 0  Min: 0  Max: 1024  Default: 0
Changed value of parameter Threads to 8
   Prev: 0  Min: 0  Max: 1024  Default: 0
Changed value of parameter Threads to 8
   Prev: 0  Min: 0  Max: 1024  Default: 0
Changed value of parameter Threads to 8
   Prev: 0  Min: 0  Max: 1024  Default: 0
Changed value of parameter Threads to 8
   Prev: 0  Min: 0  Max: 1024  Default: 0
Changed value of parameter Threads to 8
   Prev: 0  Min: 0  Max: 1024  Default: 0
Changed value of parameter Threads to 8
   Prev: 0  Min: 0  Max: 1024  Default: 0
Changed value of parameter Threads to 8
   Prev: 0  Min: 0  Max: 1024  Default: 0
Changed value of parameter Threads to 8
   Prev: 0  Min: 0  Max: 1024  Default: 0
Changed value of parameter Threads to 8
   Prev: 0  Min: 0  Max: 1024  Default: 0
Changed value of parameter Threads to 8
   Prev: 0  Min: 0  Max: 1024  Default: 0
Changed value of parameter Threads to 8
   Prev: 0  Min: 0  Max: 1024  Default: 0

Gurobi 7.0.2 (mac64, Python) logging started Fri Dec  8 18:42:24 2017


Gurobi 7.0.2 (mac64, Python) logging started Fri Dec  8 18:57:42 2017


Gurobi 7.0.2 (mac64, Python) logging started Sat Dec  9 11:47:59 2017


Gurobi 7.0.2 (mac64, Python) logging started Sat Dec  9 14:37:09 2017


Gurobi 7.0.2 (mac64, Python) logging started Sat Dec  9 14:43:04 2017


Gurobi 7.0.2 (mac64, Python) logging started Sat Dec  9 14:47:01 2017


Gurobi 7.0.2 (mac64, Python) logging started Sat Dec  9 14:48:35 2017


Gurobi 7.0.2 (mac64, Python) logging started Sat Dec  9 14:50:15 2017


Gurobi 7.0.2 (mac64, Python) logging started Sat Dec  9 14:52:01 2017


Gurobi 7.0.2 (mac64, Python) logging started Sat Dec  9 14:53:10 2017


Gurobi 7.0.2 (mac64, Python) logging started Sat Dec  9 14:56:42 2017


Gurobi 7.0.2 (mac64, Python) logging started Sat Dec  9 14:58:25 2017


Gurobi 7.0.2 (mac64, Python) logging started Sat Dec  9 15:01:20 2017


Gurobi 7.0.2 (mac64, Python) logging started Sat Dec  9 15:02:40 2017


Gurobi 7.0.2 (mac64, Python) logging started Sat Dec  9 15:23:03 2017


Gurobi 7.0.2 (mac64, Python) logging started Sat Dec  9 15:24:08 2017


Gurobi 7.0.2 (mac64, Python) logging started Sat Dec  9 15:24:50 2017


Gurobi 7.0.2 (mac64, Python) logging started Sat Dec  9 15:30:09 2017


Gurobi 7.0.2 (mac64, Python) logging started Sat Dec  9 15:30:41 2017


Gurobi 7.0.2 (mac64, Python) logging started Sat Dec  9 15:31:52 2017


Gurobi 7.0.2 (mac64, Python) logging started Sat Dec  9 15:41:01 2017


Gurobi 7.0.2 (mac64, Python) logging started Sat Dec  9 15:42:37 2017


Gurobi 7.0.2 (mac64, Python) logging started Sat Dec  9 15:42:58 2017


Gurobi 7.0.2 (mac64, Python) logging started Sat Dec  9 15:43:48 2017


Gurobi 7.0.2 (mac64, Python) logging started Sat Dec  9 15:47:01 2017


Gurobi 7.0.2 (mac64, Python) logging started Sat Dec  9 15:50:25 2017


Gurobi 7.0.2 (mac64, Python) logging started Sat Dec  9 15:50:46 2017


Gurobi 7.0.2 (mac64, Python) logging started Sat Dec  9 15:53:40 2017


Gurobi 7.0.2 (mac64, Python) logging started Sat Dec  9 15:53:49 2017


Gurobi 7.0.2 (mac64, Python) logging started Sat Dec  9 15:54:05 2017


Gurobi 7.0.2 (mac64, Python) logging started Sat Dec  9 15:54:33 2017


Gurobi 7.0.2 (mac64, Python) logging started Sat Dec  9 15:55:22 2017


Gurobi 7.0.2 (mac64, Python) logging started Sat Dec  9 15:55:55 2017


Gurobi 7.0.2 (mac64, Python) logging started Sat Dec  9 15:57:04 2017


Gurobi 7.0.2 (mac64, Python) logging started Mon Dec 11 12:24:58 2017


Gurobi 7.0.2 (mac64, Python) logging started Mon Dec 11 12:26:58 2017


Gurobi 7.0.2 (mac64, Python) logging started Mon Dec 11 12:27:40 2017


Gurobi 7.0.2 (mac64, Python) logging started Mon Dec 11 12:29:24 2017


Gurobi 7.0.2 (mac64, Python) logging started Mon Dec 11 12:35:55 2017


Gurobi 7.0.2 (mac64, Python) logging started Mon Dec 11 12:36:16 2017


Gurobi 7.0.2 (mac64, Python) logging started Tue Dec 12 14:09:53 2017


Gurobi 7.0.2 (mac64, Python) logging started Tue Dec 12 14:10:40 2017


Gurobi 7.0.2 (mac64, Python) logging started Tue Dec 12 14:29:46 2017


Gurobi 7.0.2 (mac64, Python) logging started Tue Dec 12 14:31:04 2017


Gurobi 7.0.2 (mac64, Python) logging started Tue Dec 12 14:31:24 2017


Gurobi 7.0.2 (mac64, Python) logging started Tue Dec 12 14:31:40 2017


Gurobi 7.0.2 (mac64, Python) logging started Tue Dec 12 14:32:04 2017


Gurobi 7.0.2 (mac64, Python) logging started Tue Dec 12 14:32:16 2017


Gurobi 7.0.2 (mac64, Python) logging started Tue Dec 12 14:32:31 2017


Gurobi 7.0.2 (mac64, Python) logging started Tue Dec 12 14:33:00 2017


Gurobi 7.0.2 (mac64, Python) logging started Tue Dec 12 14:33:08 2017


Gurobi 7.0.2 (mac64, Python) logging started Tue Dec 12 14:33:51 2017


Gurobi 7.0.2 (mac64, Python) logging started Tue Dec 12 15:04:00 2017


Gurobi 7.0.2 (mac64, Python) logging started Tue Dec 12 15:04:15 2017


Gurobi 7.0.2 (mac64, Python) logging started Tue Dec 12 15:08:00 2017


Gurobi 7.0.2 (mac64, Python) logging started Tue Dec 12 15:08:22 2017


Gurobi 7.0.2 (mac64, Python) logging started Tue Dec 12 15:09:43 2017


Gurobi 7.0.2 (mac64, Python) logging started Tue Dec 12 15:10:21 2017


Gurobi 7.0.2 (mac64, Python) logging started Tue Dec 12 15:10:38 2017


Gurobi 7.0.2 (mac64, Python) logging started Tue Dec 12 15:16:37 2017


Gurobi 7.0.2 (mac64, Python) logging started Tue Dec 12 15:16:55 2017


Gurobi 7.0.2 (mac64, Python) logging started Tue Dec 12 15:22:07 2017


Gurobi 7.0.2 (mac64, Python) logging started Tue Dec 12 15:23:25 2017


Gurobi 7.0.2 (mac64, Python) logging started Tue Dec 12 15:24:14 2017


Gurobi 7.0.2 (mac64, Python) logging started Tue Dec 12 15:27:16 2017


Gurobi 7.0.2 (mac64, Python) logging started Tue Dec 12 15:28:06 2017


Gurobi 7.0.2 (mac64, Python) logging started Tue Dec 12 15:28:36 2017


Gurobi 7.0.2 (mac64, Python) logging started Tue Dec 12 15:28:47 2017


Gurobi 7.0.2 (mac64, Python) logging started Tue Dec 12 15:50:07 2017


Gurobi 7.0.2 (mac64, Python) logging started Tue Dec 12 15:50:23 2017


Gurobi 7.0.2 (mac64, Python) logging started Tue Dec 12 15:50:47 2017


Gurobi 7.0.2 (mac64, Python) logging started Tue Dec 12 15:52:32 2017


Gurobi 7.0.2 (mac64, Python) logging started Tue Dec 12 15:53:26 2017


Gurobi 7.0.2 (mac64, Python) logging started Tue Dec 12 15:53:43 2017


Gurobi 7.0.2 (mac64, Python) logging started Tue Dec 12 16:18:24 2017


Gurobi 7.0.2 (mac64, Python) logging started Tue Dec 12 16:18:46 2017


Gurobi 7.0.2 (mac64, Python) logging started Tue Dec 12 16:19:08 2017


Gurobi 7.0.2 (mac64, Python) logging started Tue Dec 12 16:20:03 2017


Gurobi 7.0.2 (mac64, Python) logging started Tue Dec 12 16:22:14 2017


Gurobi 7.0.2 (mac64, Python) logging started Tue Dec 12 16:24:57 2017


Gurobi 7.0.2 (mac64, Python) logging started Tue Dec 12 16:30:00 2017


Gurobi 7.0.2 (mac64, Python) logging started Tue Dec 12 16:30:11 2017


Gurobi 7.0.2 (mac64, Python) logging started Tue Dec 12 16:32:31 2017


Gurobi 7.0.2 (mac64, Python) logging started Tue Dec 12 16:35:55 2017


Gurobi 7.0.2 (mac64, Python) logging started Tue Dec 12 16:37:11 2017


Gurobi 7.0.2 (mac64, Python) logging started Tue Dec 12 16:37:43 2017


Gurobi 7.0.2 (mac64, Python) logging started Tue Dec 12 16:40:53 2017


Gurobi 7.0.2 (mac64, Python) logging started Tue Dec 12 16:47:30 2017


Gurobi 7.0.2 (mac64, Python) logging started Tue Dec 12 16:58:47 2017


Gurobi 7.0.2 (mac64, Python) logging started Tue Dec 12 18:50:53 2017


Gurobi 7.0.2 (mac64, Python) logging started Tue Dec 12 19:16:06 2017


Gurobi 7.0.2 (mac64, Python) logging started Tue Dec 12 19:16:25 2017


Gurobi 7.0.2 (mac64, Python) logging started Tue Dec 12 19:16:46 2017


Gurobi 7.0.2 (mac64, Python) logging started Tue Dec 12 19:19:55 2017


Gurobi 7.0.2 (mac64, Python) logging started Tue Dec 12 19:20:12 2017


Gurobi 7.0.2 (mac64, Python) logging started Tue Dec 12 19:21:43 2017


Gurobi 7.0.2 (mac64, Python) logging started Tue Dec 12 19:23:43 2017


Gurobi 7.0.2 (mac64, Python) logging started Tue Dec 12 19:32:20 2017


Gurobi 7.0.2 (mac64, Python) logging started Tue Dec 12 19:54:48 2017


Gurobi 7.0.2 (mac64, Python) logging started Tue Dec 12 19:58:37 2017


Gurobi 7.0.2 (mac64, Python) logging started Tue Dec 12 20:00:36 2017


Gurobi 7.0.2 (mac64, Python) logging started Tue Dec 12 20:24:55 2017


Gurobi 7.0.2 (mac64, Python) logging started Tue Dec 12 20:25:06 2017


Gurobi 7.0.2 (mac64, Python) logging started Tue Dec 12 21:55:31 2017


Gurobi 7.0.2 (mac64, Python) logging started Tue Dec 12 22:22:31 2017


Gurobi 7.0.2 (mac64, Python) logging started Tue Dec 12 22:22:58 2017


Gurobi 7.0.2 (mac64, Python) logging started Tue Dec 12 22:24:14 2017


Gurobi 7.0.2 (mac64, Python) logging started Tue Dec 12 22:30:06 2017


Gurobi 7.0.2 (mac64, Python) logging started Tue Dec 12 22:30:47 2017


Gurobi 7.0.2 (mac64, Python) logging started Tue Dec 12 22:32:53 2017


Gurobi 7.0.2 (mac64, Python) logging started Tue Dec 12 22:33:17 2017


Gurobi 7.0.2 (mac64, Python) logging started Tue Dec 12 22:34:20 2017


Gurobi 7.0.2 (mac64, Python) logging started Tue Dec 12 22:35:00 2017


Gurobi 7.0.2 (mac64, Python) logging started Tue Dec 12 22:39:00 2017


Gurobi 7.0.2 (mac64, Python) logging started Tue Dec 12 22:39:27 2017

